NAME : expansion
TYPE : TSP
DIMENSION : 50
EDGE_WEIGHT_TYPE : EUC_2D
NODE_COORD_SECTION
1 626086 285467
2 745293 732215
3 532844 352896
4 846075 774912
5 821309 206457
6 943947 961737
7 690037 814857
8 767440 655878
9 744630 414441
10 391187 21550
11 693293 398211
12 819521 180126
13 957597 655340
14 628774 252881
15 630641 431709
16 856464 112072
17 527708 7511
18 964655 822090
19 895335 906327
20 813857 218706
21 532540 20521
22 650447 314004
23 9185 39784
24 975823 663708
25 836547 992365
26 943353 687144
27 771477 725808
28 597800 539150
29 704205 707076
30 969358 663334
31 526851 295625
32 549912 331969
33 647039 261884
34 837759 605605
35 504778 350085
36 719196 288835
37 955138 743
38 995850 770491
39 846680 280615
40 486957 14959
41 572217 703084
42 481603 334026
43 891930 893525
44 799845 837230
45 580942 412680
46 781325 26399
47 321435 830128
48 647684 202492
49 594349 254431
50 763000 753122
EOF
